(set-info :smt-lib-version 2.6)
(set-logic QF_UFLRA)
(set-info :source |
MathSat group

|)
(set-info :category "random")
(set-info :status sat)
(declare-fun x0 () Real)
(declare-fun x1 () Real)
(declare-fun x2 () Real)
(declare-fun x3 () Real)
(declare-fun x4 () Real)
(declare-fun x5 () Real)
(declare-fun x6 () Real)
(declare-fun x7 () Real)
(declare-fun x8 () Real)
(declare-fun x9 () Real)
(declare-fun x10 () Real)
(declare-fun x11 () Real)
(declare-fun x12 () Real)
(declare-fun x13 () Real)
(declare-fun x14 () Real)
(declare-fun x15 () Real)
(declare-fun x16 () Real)
(declare-fun x17 () Real)
(declare-fun x18 () Real)
(declare-fun x19 () Real)
(declare-fun x20 () Real)
(declare-fun x21 () Real)
(declare-fun x22 () Real)
(declare-fun x23 () Real)
(declare-fun x24 () Real)
(declare-fun x25 () Real)
(declare-fun x26 () Real)
(declare-fun x27 () Real)
(declare-fun x28 () Real)
(declare-fun x29 () Real)
(declare-fun f0_1 (Real) Real)
(declare-fun f0_2 (Real Real) Real)
(declare-fun f0_3 (Real Real Real) Real)
(declare-fun f0_4 (Real Real Real Real) Real)
(declare-fun P0 () Bool)
(declare-fun P1 () Bool)
(declare-fun P2 () Bool)
(declare-fun P3 () Bool)
(declare-fun P4 () Bool)
(declare-fun P5 () Bool)
(declare-fun P6 () Bool)
(declare-fun P7 () Bool)
(declare-fun P8 () Bool)
(declare-fun P9 () Bool)
(declare-fun P10 () Bool)
(declare-fun P11 () Bool)
(declare-fun P12 () Bool)
(declare-fun P13 () Bool)
(declare-fun P14 () Bool)
(declare-fun P15 () Bool)
(declare-fun P16 () Bool)
(declare-fun P17 () Bool)
(declare-fun P18 () Bool)
(declare-fun P19 () Bool)
(declare-fun P20 () Bool)
(declare-fun P21 () Bool)
(declare-fun P22 () Bool)
(declare-fun P23 () Bool)
(declare-fun P24 () Bool)
(declare-fun P25 () Bool)
(declare-fun P26 () Bool)
(declare-fun P27 () Bool)
(declare-fun P28 () Bool)
(declare-fun P29 () Bool)
(assert (let ((?v_62 (<= (+ (- (* 5 x27) (* 23 x24)) (* 25 x20)) 11)) (?v_9 (distinct (+ (- (* 17 x25) (* 8 x13)) (* 9 x2)) 5)) (?v_25 (< (- (+ (* 3 x17) (* 7 x8)) (* 42 x10)) 13)) (?v_123 (< (+ (- (* 28 x6) (* 41 x14)) (* 23 x18)) 28)) (?v_28 (= x16 (f0_2 x1 x3))) (?v_53 (= x7 x25)) (?v_44 (= x0 (f0_1 x11))) (?v_40 (= (f0_2 x29 x2) (f0_2 x27 x11))) (?v_69 (distinct x0 x22)) (?v_98 (distinct (f0_2 x26 x27) x9)) (?v_110 (distinct (f0_2 x29 x22) (f0_2 x10 x14))) (?v_128 (distinct (f0_1 x9) x4)) (?v_61 (= x21 (f0_2 x6 x24))) (?v_0 (= (f0_2 x26 x22) x27)) (?v_37 (distinct x2 x2)) (?v_27 (= (f0_1 x8) (f0_2 x15 x25))) (?v_77 (= x2 x17)) (?v_17 (distinct (f0_1 x28) (f0_2 x25 x29))) (?v_32 (= (f0_2 x11 x18) x20)) (?v_16 (= (f0_2 x3 x14) (f0_2 x17 x22))) (?v_5 (f0_1 x26))) (let ((?v_1 (= ?v_5 (f0_1 x3))) (?v_86 (f0_1 x14))) (let ((?v_57 (distinct (f0_2 x3 x15) ?v_86)) (?v_103 (= ?v_86 (f0_1 x12))) (?v_102 (distinct x18 (f0_1 x16))) (?v_10 (distinct (f0_1 x15) (f0_1 x4))) (?v_58 (f0_1 x0))) (let ((?v_50 (= x14 ?v_58)) (?v_12 (distinct (f0_2 x29 x20) x18)) (?v_4 (distinct x25 (f0_2 x11 x19))) (?v_121 (distinct ?v_58 ?v_58)) (?v_51 (distinct x20 (f0_2 x8 x9))) (?v_80 (= x28 x24)) (?v_24 (= x26 ?v_5)) (?v_54 (distinct (f0_2 x0 x14) (f0_2 x0 x10))) (?v_7 (distinct x0 (f0_2 x15 x22))) (?v_21 (not ?v_16)) (?v_14 (not ?v_98)) (?v_64 (not P11)) (?v_56 (not ?v_128))) (let ((?v_106 (not ?v_54)) (?v_74 (not ?v_110)) (?v_30 (not P8)) (?v_97 (not ?v_50)) (?v_99 (not P7)) (?v_11 (not ?v_17)) (?v_135 (not P15)) (?v_83 (not ?v_4)) (?v_26 (not ?v_51)) (?v_6 (not ?v_0)) (?v_29 (not P9)) (?v_22 (not P27)) (?v_43 (not P25))) (let ((?v_116 (or ?v_43 ?v_28)) (?v_23 (not ?v_7)) (?v_144 (not P24)) (?v_18 (not ?v_9)) (?v_104 (not P22)) (?v_65 (not P16)) (?v_140 (not P14)) (?v_126 (not ?v_1)) (?v_42 (not ?v_123)) (?v_120 (not ?v_10)) (?v_59 (not ?v_32)) (?v_67 (not ?v_24)) (?v_152 (not P6)) (?v_118 (not ?v_57)) (?v_68 (not ?v_12)) (?v_107 (not P18)) (?v_114 (not P29)) (?v_130 (not P17)) (?v_78 (not P4)) (?v_136 (not P26)) (?v_52 (not ?v_40)) (?v_101 (not ?v_102)) (?v_127 (not ?v_44)) (?v_122 (not P2)) (?v_146 (not P0)) (?v_73 (not P10)) (?v_91 (not ?v_121)) (?v_88 (not ?v_62)) (?v_89 (not ?v_61)) (?v_124 (not P19)) (?v_87 (not ?v_53)) (?v_154 (not ?v_69)) (?v_105 (not P21)) (?v_147 (not P13)) (?v_100 (not ?v_80)) (?v_90 (not P1)) (?v_133 (not ?v_103)) (?v_95 (not ?v_27)) (?v_149 (not P28)) (?v_117 (not P23)) (?v_108 (not P5)) (?v_111 (not P3)) (?v_125 (not P20)) (?v_143 (not ?v_28)) (?v_132 (not ?v_77)) (?v_141 (not ?v_37)) (?v_151 (not P12)) (?v_148 (not ?v_25)) (?v_39 (< (+ (* 37 x15) (* 13 x15) (* 7 x26)) 21))) (let ((?v_55 (not ?v_39)) (?v_13 (<= (- (* 33 x23) (* 22 x7)) 29))) (let ((?v_33 (not ?v_13)) (?v_46 (< (+ (* 2 x14) (* 33 x15) (* 28 x22)) 29)) (?v_138 (<= (+ (* 34 x22) (* 10 x16) (* 14 x12)) 26))) (let ((?v_60 (not ?v_138)) (?v_66 (not ?v_46)) (?v_2 (<= (+ (* 7 x4) (* 39 x23) (* 28 x16)) (- 24))) (?v_20 (<= (- (+ (* 12 x4) (* 40 x22)) (* 40 x14)) (- 40)))) (let ((?v_45 (not ?v_20)) (?v_63 (< (+ (* 33 x29) (* 14 x28) (* 40 x2)) (- 14)))) (let ((?v_8 (not ?v_63)) (?v_96 (< (- (+ (* (- 40) x18) (* 10 x20)) (* 26 x24)) 44))) (let ((?v_47 (not ?v_96)) (?v_79 (< (- (+ (* 20 x21) (* 7 x2)) (* 27 x3)) (- 9)))) (let ((?v_38 (not ?v_79)) (?v_3 (not ?v_2)) (?v_19 (<= (+ (* (- 3) x26) (* 18 x7) (* 12 x28)) (- 29)))) (let ((?v_113 (not ?v_19)) (?v_134 (< (+ (* (- 30) x27) (* 30 x29) x14) (- 37)))) (let ((?v_15 (not ?v_134)) (?v_82 (<= (- (+ (* (- 10) x26) (* 11 x10)) (* 22 x20)) 21)) (?v_31 (<= (+ (- (* (- 14) x13) (* 41 x6)) (* 8 x29)) (- 17))) (?v_48 (<= (- (- (* (- 5) x28) (* 14 x9)) (* 35 x22)) 4)) (?v_34 (= (- (- (* (- 4) x29) x16) (* 24 x21)) (- 34)))) (let ((?v_75 (not ?v_34)) (?v_71 (< (+ (- (* 14 x3) (* 7 x15)) (* 26 x27)) (- 33))) (?v_70 (<= (- (+ (* (- 33) x27) (* 37 x7)) (* 20 x2)) 13))) (let ((?v_109 (not ?v_70)) (?v_35 (< (- (+ (* (- 27) x26) (* 21 x27)) (* 4 x16)) (- 17)))) (let ((?v_41 (not ?v_35)) (?v_76 (<= (- (- (* 30 x8) (* 22 x15)) (* 38 x4)) (- 9))) (?v_36 (distinct (+ (- (* 29 x0) (* 8 x18)) (* 41 x17)) (- 21)))) (let ((?v_142 (not ?v_36)) (?v_72 (= (+ (- (* 10 x1) (* 19 x7)) (* 3 x28)) (- 23)))) (let ((?v_49 (not ?v_72)) (?v_92 (<= (+ (* (- 5) x6) (* 7 x3) (* 18 x19)) 33)) (?v_81 (not ?v_48)) (?v_145 (not ?v_31)) (?v_93 (<= (+ (- (* (- 11) x20) (* 16 x26)) (* 31 x19)) 5)) (?v_119 (not ?v_71)) (?v_84 (<= (+ (* (- 5) x14) (* 37 x11) (* 15 x6)) 5)) (?v_137 (not ?v_82)) (?v_85 (< (+ (* 3 x12) (* 31 x17) (* 28 x4)) (- 16)))) (let ((?v_139 (not ?v_85)) (?v_94 (< (+ (* (- 17) x24) (* 10 x29) (* 36 x2)) (- 3))) (?v_112 (not ?v_76)) (?v_153 (not ?v_84)) (?v_115 (not ?v_93)) (?v_129 (not ?v_92)) (?v_131 (or ?v_76 ?v_65))) (let ((?v_150 (not ?v_94))) (and (and (and (and (and (and (and (and (and (and (and (and (and (and (and (and (and (and (and (and (and (and (and (and (and (and (and (and (and (and (and (and (and (and (and (and (and (and (and (and (and (and (and (and (and (and (and (and (and (and (and (and (and (and (and (and (and (and (and (and (and (and (and (and (and (and (and (and (and (and (and (and (and (and (and (and (and (and (and (and (and (and (and (and (and (and (and (and (and (and (and (and (and (and (and (and (and (and (and (and (and (and (and (and (and (and (and (and (and (and (and (and (and (and (and (and (and (and (and (and (and (and (and (and (and (and (and (and (and (and (and (and (and (and (and (and (and (and (and (and (and (and (and (and (and (and (and (and (and (and (and (and (and (and (and (and (and (and (and (and (and (and (and (and (and (and (and (and (and (and (and (and (and (and (and (and (and (and (and (and (and (and (and (and (and (and (and (and (and (and (and (and (and (and (and (and (and (and (and (and (and (and (and (and (and (and (and (and (and (and (and (and (and (and (and (and (and (and (and (and (and (and (and (and (and (and (and (and (and (and (and (and (and (and (and (and (and (and (and (and (and (and (and (and (and (and (and (and (and (and (and (and (and (and (and (and (and (and (and (and (and (and (and (and (and (and (and (and (and (and (and (and (and (and (and (and (and (and (and (and (and (and (and (and (and (and (and (and (and (and (and (and (and (and (and (and (and (and (and (and (and (and (and (and (and (and (and (and (and (and (and (and (and (and (and (and (and (and (and (and (and (and (and (and (and (and (and (and (and (and (and (and (and (and (and (and (and (and (and (and (and (and (and (and (and (and (and (and (and (and (and (and (and (and (and (and (and (and (and (or (or ?v_0 ?v_2) ?v_21) (or (or ?v_45 ?v_12) ?v_14)) (or (or ?v_64 ?v_55) ?v_56)) (or (or P24 ?v_106) ?v_8)) (or (or ?v_74 ?v_30) P18)) (or (or ?v_13 ?v_1) ?v_97)) (or (or ?v_9 ?v_27) ?v_99)) (or (or ?v_47 ?v_0) P19)) (or (or ?v_38 ?v_11) ?v_135)) (or (or ?v_1 ?v_3) ?v_113)) (or (or ?v_4 ?v_3) P1)) (or (or ?v_83 ?v_26) ?v_6)) (or (or P16 ?v_2) P25)) (or (or ?v_7 P24) P1)) (or (or ?v_24 ?v_29) ?v_22)) (or ?v_116 ?v_53)) (or (or ?v_10 ?v_6) ?v_23)) (or (or P3 ?v_8) ?v_15)) (or (or ?v_82 ?v_144) ?v_31)) (or (or ?v_18 ?v_2) ?v_48)) (or (or P28 ?v_10) ?v_104)) (or (or ?v_65 ?v_11) ?v_12)) (or (or P17 P9) ?v_61)) (or (or ?v_140 ?v_33) P10)) (or (or ?v_14 ?v_75) P10)) (or (or ?v_126 ?v_15) ?v_42)) (or (or ?v_16 ?v_17) P26)) (or (or ?v_17 ?v_16) ?v_120)) (or (or ?v_18 ?v_19) ?v_20)) (or (or ?v_21 ?v_22) ?v_10)) (or (or ?v_25 ?v_59) ?v_71)) (or (or ?v_23 ?v_109) ?v_67)) (or (or ?v_25 ?v_26) ?v_37)) (or (or ?v_27 P28) ?v_152)) (or (or ?v_118 ?v_16) ?v_8)) (or (or ?v_41 ?v_68) ?v_107)) (or (or ?v_114 ?v_44) ?v_69)) (or (or ?v_76 ?v_130) ?v_28)) (or (or ?v_40 ?v_29) ?v_30)) (or (or ?v_13 ?v_26) ?v_78)) (or (or ?v_31 ?v_32) ?v_33)) (or (or ?v_142 ?v_46) ?v_34)) (or (or ?v_35 ?v_49) P11)) (or (or ?v_36 ?v_37) ?v_7)) (or (or P24 P25) P23)) (or (or ?v_136 ?v_33) ?v_38)) (or (or P2 ?v_17) ?v_27)) (or (or ?v_39 P16) ?v_18)) (or (or ?v_60 ?v_32) ?v_52)) (or (or ?v_39 ?v_92) P13)) (or (or P5 ?v_101) ?v_41)) (or (or ?v_42 ?v_43) P5)) (or (or ?v_80 P11) ?v_1)) (or (or ?v_127 ?v_45) ?v_66)) (or (or ?v_35 P17) ?v_47)) (or (or ?v_81 ?v_49) ?v_122)) (or (or ?v_50 P3) ?v_51)) (or (or ?v_146 ?v_73) ?v_52)) (or (or ?v_31 ?v_53) ?v_54)) (or (or ?v_1 P16) ?v_42)) (or (or ?v_28 ?v_55) P0)) (or (or ?v_77 ?v_55) ?v_26)) (or (or ?v_56 ?v_57) ?v_91)) (or (or ?v_62 ?v_38) ?v_20)) (or (or ?v_59 ?v_53) ?v_60)) (or (or ?v_48 ?v_43) ?v_55)) (or (or ?v_25 ?v_145) ?v_61)) (or (or P19 ?v_88) ?v_15)) (or (or P6 ?v_9) P17)) (or (or ?v_11 ?v_89) ?v_124)) (or (or P21 ?v_63) ?v_87)) (or (or ?v_64 ?v_65) ?v_66)) (or (or ?v_49 ?v_93) ?v_6)) (or (or ?v_67 ?v_68) ?v_16)) (or (or ?v_154 ?v_105) ?v_70)) (or (or ?v_119 ?v_72) ?v_73)) (or (or ?v_25 P25) ?v_74)) (or (or P28 ?v_147) ?v_75)) (or (or P9 ?v_20) ?v_62)) (or (or ?v_6 P20) ?v_76)) (or (or ?v_77 ?v_26) ?v_78)) (or (or ?v_62 ?v_32) ?v_63)) (or (or ?v_65 ?v_79) ?v_100)) (or (or ?v_81 ?v_24) P12)) (or (or P4 ?v_84) ?v_4)) (or (or ?v_137 ?v_83) ?v_1)) (or (or ?v_84 ?v_32) ?v_39)) (or (or ?v_90 ?v_22) ?v_85)) (or (or ?v_139 ?v_30) P13)) (or (or ?v_133 ?v_87) ?v_88)) (or (or ?v_1 ?v_48) ?v_89)) (or (or ?v_51 ?v_79) P0)) (or (or ?v_85 ?v_39) ?v_90)) (or (or ?v_95 ?v_7) ?v_68)) (or (or ?v_94 P7) ?v_91)) (or (or ?v_31 ?v_22) ?v_47)) (or (or P29 ?v_48) ?v_57)) (or (or ?v_59 P24) ?v_47)) (or (or ?v_92 ?v_91) P17)) (or (or ?v_93 ?v_18) ?v_77)) (or (or ?v_94 ?v_0) ?v_51)) (or (or P28 ?v_95) ?v_13)) (or (or ?v_112 ?v_37) P17)) (or (or ?v_95 P18) ?v_25)) (or (or P24 ?v_96) ?v_97)) (or (or ?v_98 ?v_99) ?v_65)) (or (or ?v_55 P20) ?v_149)) (or (or ?v_100 ?v_18) ?v_117)) (or (or ?v_77 ?v_7) ?v_101)) (or (or ?v_102 ?v_62) ?v_103)) (or (or ?v_53 P22) ?v_46)) (or (or ?v_22 ?v_65) ?v_104)) (or (or ?v_66 ?v_80) ?v_105)) (or (or ?v_108 ?v_88) ?v_65)) (or (or ?v_17 ?v_106) P20)) (or (or ?v_65 ?v_111) P17)) (or (or ?v_75 ?v_10) ?v_80)) (or (or ?v_90 ?v_107) ?v_42)) (or (or P27 ?v_77) ?v_30)) (or (or ?v_36 ?v_101) ?v_66)) (or (or ?v_65 ?v_13) ?v_28)) (or (or ?v_97 ?v_20) ?v_125)) (or (or ?v_108 ?v_22) ?v_109)) (or (or P9 ?v_11) ?v_110)) (or (or ?v_45 ?v_153) P14)) (or (or ?v_111 ?v_87) ?v_47)) (or (or ?v_112 ?v_11) ?v_27)) (or (or ?v_46 ?v_11) ?v_77)) (or (or ?v_28 ?v_115) ?v_37)) (or (or ?v_41 ?v_90) ?v_47)) (or (or ?v_103 ?v_113) ?v_2)) (or (or ?v_38 ?v_3) ?v_114)) (or (or P28 ?v_143) ?v_46)) (or (or ?v_98 ?v_132) ?v_17)) (or (or ?v_89 ?v_65) ?v_24)) (or (or ?v_9 ?v_115) ?v_97)) (or (or ?v_100 ?v_113) ?v_65)) (or (or ?v_23 ?v_37) P21)) (or (or ?v_26 ?v_65) ?v_129)) (or (or ?v_21 P11) ?v_48)) (or (or ?v_30 ?v_12) ?v_57)) (or (or P6 ?v_87) ?v_94)) (or ?v_116 ?v_117)) (or (or ?v_108 P8) ?v_118)) (or (or ?v_52 ?v_105) ?v_11)) (or (or ?v_2 ?v_27) ?v_119)) (or (or ?v_46 ?v_111) ?v_45)) (or (or ?v_120 ?v_121) P14)) (or (or ?v_11 P1) ?v_122)) (or (or ?v_43 ?v_18) P9)) (or (or ?v_108 ?v_114) ?v_68)) (or (or ?v_12 P5) ?v_51)) (or (or ?v_123 ?v_1) ?v_26)) (or (or ?v_29 ?v_112) ?v_25)) (or (or ?v_124 ?v_141) ?v_115)) (or (or ?v_50 ?v_68) ?v_125)) (or (or ?v_126 ?v_75) ?v_127)) (or (or P4 P23) ?v_68)) (or ?v_131 ?v_41)) (or (or ?v_105 ?v_101) P2)) (or (or P15 ?v_33) P0)) (or (or ?v_91 ?v_128) P3)) (or (or ?v_38 ?v_21) ?v_98)) (or (or P15 ?v_96) ?v_108)) (or (or ?v_42 ?v_53) ?v_46)) (or (or ?v_129 ?v_65) ?v_80)) (or (or ?v_33 ?v_53) ?v_57)) (or (or P9 ?v_130) ?v_48)) (or (or ?v_63 P9) ?v_40)) (or (or ?v_3 ?v_25) ?v_124)) (or (or P4 ?v_83) ?v_18)) (or (or ?v_22 P28) ?v_37)) (or (or ?v_19 P10) ?v_128)) (or (or ?v_47 ?v_56) ?v_74)) (or (or ?v_100 ?v_55) ?v_67)) (or (or ?v_80 ?v_17) ?v_71)) (or ?v_131 ?v_106)) (or (or P9 P18) ?v_23)) (or (or ?v_100 ?v_132) ?v_76)) (or (or ?v_10 ?v_63) ?v_128)) (or (or ?v_61 ?v_109) ?v_88)) (or (or ?v_128 ?v_93) P27)) (or (or ?v_72 ?v_104) P14)) (or (or P13 ?v_133) ?v_57)) (or (or ?v_47 ?v_3) ?v_16)) (or (or ?v_75 P3) ?v_134)) (or (or ?v_110 ?v_110) ?v_135)) (or (or ?v_130 ?v_136) ?v_70)) (or (or ?v_150 ?v_97) ?v_72)) (or (or ?v_40 ?v_104) ?v_79)) (or (or ?v_85 ?v_105) ?v_137)) (or (or ?v_127 ?v_51) ?v_81)) (or (or ?v_24 ?v_138) ?v_92)) (or (or ?v_34 ?v_2) ?v_42)) (or (or ?v_75 ?v_100) P15)) (or (or ?v_87 ?v_105) P8)) (or (or ?v_52 ?v_117) ?v_18)) (or (or ?v_76 ?v_29) ?v_87)) (or (or ?v_57 ?v_84) ?v_9)) (or (or P6 ?v_115) ?v_45)) (or (or P10 ?v_39) ?v_71)) (or (or ?v_139 ?v_31) ?v_35)) (or (or ?v_106 ?v_82) ?v_66)) (or (or ?v_80 P5) ?v_29)) (or (or ?v_110 ?v_56) ?v_21)) (or (or ?v_20 ?v_23) ?v_77)) (or (or ?v_67 ?v_64) ?v_25)) (or (or ?v_27 ?v_51) ?v_34)) (or (or ?v_93 P29) ?v_79)) (or (or P25 ?v_105) ?v_151)) (or (or ?v_120 ?v_42) ?v_135)) (or (or P4 ?v_140) ?v_56)) (or (or ?v_79 ?v_106) ?v_63)) (or (or ?v_87 ?v_73) ?v_4)) (or (or ?v_96 ?v_54) ?v_28)) (or (or ?v_26 ?v_111) ?v_95)) (or (or ?v_57 ?v_114) ?v_62)) (or (or ?v_42 ?v_32) ?v_57)) (or (or ?v_70 ?v_95) ?v_22)) (or (or ?v_89 ?v_125) ?v_109)) (or (or ?v_48 P22) P3)) (or (or ?v_148 ?v_141) P8)) (or (or ?v_103 ?v_142) ?v_136)) (or (or ?v_143 ?v_41) ?v_40)) (or (or ?v_36 P24) ?v_30)) (or (or ?v_144 P18) ?v_117)) (or (or ?v_90 ?v_73) ?v_71)) (or (or ?v_91 ?v_74) ?v_103)) (or (or ?v_144 P3) ?v_123)) (or (or ?v_128 P12) ?v_26)) (or (or ?v_68 ?v_82) ?v_47)) (or (or ?v_8 ?v_104) P13)) (or (or ?v_47 ?v_136) ?v_21)) (or (or ?v_1 ?v_38) ?v_95)) (or (or ?v_18 ?v_9) ?v_22)) (or (or ?v_133 ?v_43) ?v_145)) (or (or ?v_78 ?v_107) ?v_37)) (or (or ?v_59 P7) ?v_90)) (or (or ?v_41 ?v_129) ?v_113)) (or (or ?v_136 P18) ?v_143)) (or (or ?v_2 ?v_71) ?v_12)) (or (or ?v_124 ?v_82) ?v_128)) (or (or ?v_60 ?v_140) ?v_40)) (or (or ?v_128 ?v_104) P23)) (or (or ?v_78 ?v_21) ?v_72)) (or (or ?v_6 ?v_32) ?v_146)) (or (or ?v_147 ?v_88) P29)) (or (or ?v_119 ?v_91) ?v_9)) (or (or ?v_15 P8) ?v_126)) (or (or ?v_2 ?v_77) ?v_88)) (or (or ?v_77 ?v_147) ?v_139)) (or (or ?v_94 ?v_45) ?v_35)) (or (or ?v_92 ?v_139) ?v_104)) (or (or ?v_120 ?v_1) ?v_64)) (or (or ?v_105 ?v_60) P22)) (or (or P23 ?v_92) ?v_126)) (or (or ?v_52 ?v_65) ?v_43)) (or (or ?v_102 ?v_29) P6)) (or (or ?v_147 ?v_122) ?v_137)) (or (or ?v_112 ?v_43) P6)) (or (or ?v_80 ?v_48) ?v_79)) (or (or ?v_39 ?v_73) ?v_113)) (or (or ?v_148 P10) P16)) (or (or P6 ?v_78) ?v_21)) (or (or ?v_33 ?v_60) ?v_104)) (or (or ?v_21 ?v_24) ?v_136)) (or (or P6 P7) ?v_20)) (or (or ?v_125 ?v_84) ?v_149)) (or (or ?v_108 P24) ?v_125)) (or (or ?v_3 ?v_150) ?v_50)) (or (or ?v_124 ?v_52) ?v_30)) (or (or ?v_50 ?v_96) ?v_57)) (or (or ?v_62 ?v_136) ?v_101)) (or (or ?v_127 P24) ?v_89)) (or (or ?v_52 ?v_52) ?v_26)) (or (or ?v_53 ?v_100) ?v_121)) (or (or ?v_143 ?v_11) ?v_120)) (or (or ?v_54 ?v_119) ?v_134)) (or (or ?v_51 ?v_28) ?v_122)) (or (or ?v_150 ?v_18) ?v_1)) (or (or ?v_110 ?v_32) P28)) (or (or ?v_88 ?v_6) ?v_18)) (or (or ?v_61 ?v_79) ?v_45)) (or (or ?v_11 ?v_105) ?v_44)) (or (or ?v_19 ?v_57) ?v_13)) (or (or ?v_4 ?v_82) ?v_88)) (or (or ?v_109 P6) ?v_125)) (or (or ?v_93 P7) ?v_31)) (or (or ?v_39 ?v_96) ?v_15)) (or (or ?v_43 ?v_70) ?v_68)) (or (or ?v_88 ?v_34) P2)) (or (or ?v_89 ?v_55) ?v_11)) (or (or ?v_137 ?v_9) ?v_128)) (or (or ?v_35 ?v_117) ?v_15)) (or (or ?v_129 P2) P25)) (or (or P23 ?v_71) P24)) (or (or ?v_48 P5) P12)) (or (or ?v_117 ?v_129) P12)) (or (or ?v_23 ?v_91) ?v_92)) (or (or ?v_136 ?v_39) ?v_151)) (or (or ?v_17 ?v_35) ?v_72)) (or (or ?v_39 ?v_35) ?v_106)) (or (or ?v_55 ?v_114) ?v_100)) (or (or ?v_137 P20) ?v_70)) (or (or ?v_136 ?v_7) ?v_82)) (or (or ?v_28 ?v_61) ?v_109)) (or (or P7 ?v_78) ?v_72)) (or (or ?v_148 ?v_152) ?v_4)) (or (or P26 ?v_29) ?v_73)) (or (or ?v_47 ?v_108) ?v_144)) (or (or ?v_46 ?v_14) ?v_115)) (or (or ?v_54 P28) ?v_28)) (or (or ?v_80 ?v_11) P29)) (or (or ?v_63 ?v_145) ?v_35)) (or (or ?v_24 ?v_77) ?v_48)) (or (or P18 ?v_141) ?v_149)) (or (or ?v_148 ?v_54) ?v_130)) (or (or ?v_138 ?v_141) ?v_77)) (or (or ?v_63 P3) ?v_128)) (or (or ?v_79 P8) P9)) (or (or ?v_61 ?v_100) ?v_98)) (or (or ?v_88 P21) ?v_57)) (or (or P18 P23) ?v_76)) (or (or P9 ?v_34) ?v_77)) (or (or P6 ?v_88) ?v_127)) (or (or ?v_25 ?v_92) ?v_153)) (or (or ?v_110 ?v_119) ?v_31)) (or (or ?v_113 ?v_35) ?v_95)) (or (or ?v_33 ?v_134) ?v_104)) (or (or ?v_149 ?v_114) ?v_97)) (or (or ?v_29 ?v_15) ?v_20)) (or (or P26 ?v_95) ?v_145)) (or (or P27 ?v_120) ?v_113)) (or (or ?v_16 ?v_144) ?v_1)) (or (or ?v_140 P12) P20)) (or (or P3 ?v_17) P28)) (or (or ?v_25 ?v_106) ?v_31)) (or (or ?v_12 ?v_108) ?v_1)) (or (or ?v_15 ?v_83) ?v_133)) (or (or ?v_47 ?v_1) P4)) (or (or ?v_62 ?v_138) ?v_77)) (or (or ?v_90 ?v_154) ?v_144)) (or (or ?v_149 ?v_83) P5)) (or (or P12 ?v_148) P15)) (or (or ?v_21 P3) ?v_44)) (or (or ?v_72 P11) ?v_42)) (or (or ?v_59 ?v_134) ?v_103)) (or (or ?v_132 ?v_121) ?v_141)) (or (or ?v_47 ?v_115) ?v_44)) (or (or ?v_124 ?v_17) ?v_21)) (or (or ?v_23 ?v_130) ?v_80)) (or (or ?v_44 P5) ?v_145)) (or (or ?v_67 ?v_136) ?v_115)) (or (or ?v_139 ?v_60) ?v_20)) (or (or ?v_87 ?v_31) ?v_151)) (or (or ?v_17 ?v_57) ?v_84)) (or (or P10 ?v_23) ?v_115)) (or (or P23 ?v_127) ?v_53)) (or (or ?v_94 ?v_142) ?v_30)) (or (or ?v_48 ?v_31) ?v_89)))))))))))))))))))))))))
(check-sat)
(exit)
